CPXPARAM_Read_DataCheck                          1
Found incumbent of value 0.000000 after 0.00 sec. (0.08 ticks)
Tried aggregator 1 time.
MIP Presolve modified 1 coefficients.
Reduced MIP has 333 rows, 3010 columns, and 15034 nonzeros.
Reduced MIP has 3010 binaries, 0 generals, 0 SOSs, and 0 indicators.
Presolve time = 0.02 sec. (5.72 ticks)
Tried aggregator 1 time.
Reduced MIP has 333 rows, 3010 columns, and 15034 nonzeros.
Reduced MIP has 3010 binaries, 0 generals, 0 SOSs, and 0 indicators.
Presolve time = 0.02 sec. (6.84 ticks)
Probing time = 0.00 sec. (3.72 ticks)
Clique table members: 10005.
MIP emphasis: balance optimality and feasibility.
MIP search method: dynamic search.
Parallel mode: deterministic, using up to 4 threads.
Root relaxation solution time = 0.02 sec. (15.98 ticks)

        Nodes                                         Cuts/
   Node  Left     Objective  IInf  Best Integer    Best Bound    ItCnt     Gap

*     0+    0                            0.0000    18389.0000              --- 
*     0+    0                         3075.0000    18389.0000           498.02%
      0     0     5404.2167    10     3075.0000     5404.2167      570   75.75%
      0     0     4822.5221    38     3075.0000     Cuts: 183      861   56.83%
*     0+    0                         3788.0000     4822.5221            27.31%
      0     0     4462.3284   221     3788.0000     Cuts: 183     1312   17.80%
      0     0     4130.0216   485     3788.0000     Cuts: 183     1731    9.03%
*     0+    0                         3938.0000     4130.0216             4.88%
      0     0     4056.8966   634     3938.0000     Cuts: 183     2012    3.02%
      0     0        cutoff           3938.0000     3938.0000     2239    0.00%
Elapsed time = 0.73 sec. (435.55 ticks, tree = 0.01 MB, solutions = 4)

Clique cuts applied:  594
Cover cuts applied:  10
Implied bound cuts applied:  14
Mixed integer rounding cuts applied:  36
Zero-half cuts applied:  8

Root node processing (before b&c):
  Real time             =    0.73 sec. (435.81 ticks)
Parallel b&c, 4 threads:
  Real time             =    0.00 sec. (0.00 ticks)
  Sync time (average)   =    0.00 sec.
  Wait time (average)   =    0.00 sec.
                          ------------
Total (root+branch&cut) =    0.73 sec. (435.81 ticks)
